100
1000
623
610
595
582
582
581
574
568
565
564
563
555
553
545
539
537
534
534
523
516
513
509
506
504
502
489
474
471
468
468
465
463
461
460
457
437
437
429
419
411
399
396
391
384
384
375
358
356
344
342
322
308
306
305
303
294
294
288
284
266
264
252
251
237
235
234
232
222
206
193
190
189
189
187
184
183
171
171
154
148
138
135
134
134
124
123
122
120
116
93
87
65
54
52
52
51
48
41
41
36
